ml/samples/md5_d1_cnf.txt
p cnf 633 1835
598 0
-603 0
608 0
-613 0
-558 0
-618 0
-563 0
623 0
568 0
518 0
-633 0
573 0
578 0
-583 0
588 0
-593 0
-523 0
-528 0
533 0
538 0
295 0
-483 0
488 0
543 0
-508 0
513 0
-628 0
503 0
-498 0
553 0
493 0
-548 0
-182 -31 0
-182 177 0
182 31 -177 0
-183 32 0
-183 -182 0
183 -32 182 0
-177 -30 0
-177 172 0
177 30 -172 0
-178 31 0
-178 -177 0
178 -31 177 0
-172 -29 0
-172 167 0
172 29 -167 0
-173 30 0
-173 -172 0
173 -30 172 0
-167 -28 0
-167 162 0
167 28 -162 0
-168 29 0
-168 -167 0
168 -29 167 0
-162 -27 0
-162 157 0
162 27 -157 0
-163 28 0
-163 -162 0
163 -28 162 0
-157 -26 0
-157 152 0
157 26 -152 0
-158 27 0
-158 -157 0
158 -27 157 0
-67 -8 0
-67 62 0
67 8 -62 0
-68 9 0
-68 -67 0
68 -9 67 0
-62 -7 0
-62 57 0
62 7 -57 0
-63 8 0
-63 -62 0
63 -8 62 0
-57 -6 0
-57 52 0
57 6 -52 0
-58 7 0
-58 -57 0
58 -7 57 0
-52 -5 0
-52 47 0
52 5 -47 0
-53 6 0
-53 -52 0
53 -6 52 0
-47 -4 0
-47 42 0
47 4 -42 0
-48 5 0
-48 -47 0
48 -5 47 0
-107 -16 0
-107 102 0
107 16 -102 0
-108 17 0
-108 -107 0
108 -17 107 0
-102 -15 0
-102 97 0
102 15 -97 0
-103 16 0
-103 -102 0
103 -16 102 0
-97 -14 0
-97 92 0
97 14 -92 0
-98 15 0
-98 -97 0
98 -15 97 0
-92 -13 0
-92 87 0
92 13 -87 0
-93 14 0
-93 -92 0
93 -14 92 0
-87 -12 0
-87 82 0
87 12 -82 0
-88 13 0
-88 -87 0
88 -13 87 0
-82 -11 0
-82 77 0
82 11 -77 0
-83 12 0
-83 -82 0
83 -12 82 0
-77 -10 0
-77 72 0
77 10 -72 0
-78 11 0
-78 -77 0
78 -11 77 0
-72 -9 0
-72 67 0
72 9 -67 0
-73 10 0
-73 -72 0
73 -10 72 0
-132 -21 0
-132 127 0
132 21 -127 0
-133 22 0
-133 -132 0
133 -22 132 0
-127 -20 0
-127 122 0
127 20 -122 0
-128 21 0
-128 -127 0
128 -21 127 0
-122 -19 0
-122 117 0
122 19 -117 0
-123 20 0
-123 -122 0
123 -20 122 0
-117 -18 0
-117 112 0
117 18 -112 0
-118 19 0
-118 -117 0
118 -19 117 0
-112 -17 0
-112 107 0
112 17 -107 0
-113 18 0
-113 -112 0
113 -18 112 0
-185 -182 0
-185 -183 0
185 182 183 0
-184 32 0
-184 -183 0
184 -32 183 0
-180 -177 0
-180 -178 0
180 177 178 0
-179 31 0
-179 -178 0
179 -31 178 0
-175 -172 0
-175 -173 0
175 172 173 0
-174 30 0
-174 -173 0
174 -30 173 0
-170 -167 0
-170 -168 0
170 167 168 0
-169 29 0
-169 -168 0
169 -29 168 0
-165 -162 0
-165 -163 0
165 162 163 0
-164 28 0
-164 -163 0
164 -28 163 0
-160 -157 0
-160 -158 0
160 157 158 0
-159 27 0
-159 -158 0
159 -27 158 0
-138 23 0
-138 -137 0
138 -23 137 0
-137 -22 0
-137 132 0
137 22 -132 0
-70 -67 0
-70 -68 0
70 67 68 0
-69 9 0
-69 -68 0
69 -9 68 0
-65 -62 0
-65 -63 0
65 62 63 0
-64 8 0
-64 -63 0
64 -8 63 0
-60 -57 0
-60 -58 0
60 57 58 0
-59 7 0
-59 -58 0
59 -7 58 0
-55 -52 0
-55 -53 0
55 52 53 0
-54 6 0
-54 -53 0
54 -6 53 0
-50 -47 0
-50 -48 0
50 47 48 0
-49 5 0
-49 -48 0
49 -5 48 0
-110 -107 0
-110 -108 0
110 107 108 0
-109 17 0
-109 -108 0
109 -17 108 0
-105 -102 0
-105 -103 0
105 102 103 0
-104 16 0
-104 -103 0
104 -16 103 0
-100 -97 0
-100 -98 0
100 97 98 0
-99 15 0
-99 -98 0
99 -15 98 0
-95 -92 0
-95 -93 0
95 92 93 0
-94 14 0
-94 -93 0
94 -14 93 0
-90 -87 0
-90 -88 0
90 87 88 0
-89 13 0
-89 -88 0
89 -13 88 0
-85 -82 0
-85 -83 0
85 82 83 0
-84 12 0
-84 -83 0
84 -12 83 0
-80 -77 0
-80 -78 0
80 77 78 0
-79 11 0
-79 -78 0
79 -11 78 0
-75 -72 0
-75 -73 0
75 72 73 0
-74 10 0
-74 -73 0
74 -10 73 0
-135 -132 0
-135 -133 0
135 132 133 0
-134 22 0
-134 -133 0
134 -22 133 0
-130 -127 0
-130 -128 0
130 127 128 0
-129 21 0
-129 -128 0
129 -21 128 0
-125 -122 0
-125 -123 0
125 122 123 0
-124 20 0
-124 -123 0
124 -20 123 0
-120 -117 0
-120 -118 0
120 117 118 0
-119 19 0
-119 -118 0
119 -19 118 0
-115 -112 0
-115 -113 0
115 112 113 0
-114 18 0
-114 -113 0
114 -18 113 0
-321 -181 0
-321 -316 0
321 181 316 0
-322 186 0
-322 -321 0
322 -186 321 0
-186 -184 0
-186 -185 0
186 184 185 0
-316 176 0
-316 -311 0
316 -176 311 0
-317 181 0
-317 316 0
317 -181 -316 0
-181 -179 0
-181 -180 0
181 179 180 0
-311 -171 0
-311 -306 0
311 171 306 0
-312 176 0
-312 -311 0
312 -176 311 0
-176 -174 0
-176 -175 0
176 174 175 0
-306 166 0
-306 -301 0
306 -166 301 0
-307 171 0
-307 306 0
307 -171 -306 0
-171 -169 0
-171 -170 0
171 169 170 0
-301 -161 0
-301 296 0
301 161 -296 0
-302 166 0
-302 -301 0
302 -166 301 0
-166 -164 0
-166 -165 0
166 164 165 0
-296 -156 0
-296 291 0
296 156 -291 0
-297 161 0
-297 -296 0
297 -161 296 0
-161 -159 0
-161 -160 0
161 159 160 0
-140 -137 0
-140 -138 0
140 137 138 0
-139 23 0
-139 -138 0
139 -23 138 0
-143 24 0
-143 -142 0
143 -24 142 0
-142 -23 0
-142 137 0
142 23 -137 0
-206 66 0
-206 -201 0
206 -66 201 0
-207 71 0
-207 206 0
207 -71 -206 0
-71 -69 0
-71 -70 0
71 69 70 0
-201 -61 0
-201 196 0
201 61 -196 0
-202 66 0
-202 -201 0
202 -66 201 0
-66 -64 0
-66 -65 0
66 64 65 0
-196 -56 0
-196 191 0
196 56 -191 0
-197 61 0
-197 -196 0
197 -61 196 0
-61 -59 0
-61 -60 0
61 59 60 0
-191 -51 0
-191 -46 0
191 51 46 0
-192 56 0
-192 -191 0
192 -56 191 0
-56 -54 0
-56 -55 0
56 54 55 0
-187 51 0
-187 46 0
187 -51 -46 0
-51 -49 0
-51 -50 0
51 49 50 0
-42 -3 0
-42 37 0
42 3 -37 0
-43 4 0
-43 -42 0
43 -4 42 0
-37 -2 0
-37 -1 0
37 2 1 0
-38 3 0
-38 -37 0
38 -3 37 0
-33 2 0
-33 1 0
33 -2 -1 0
-246 -106 0
-246 -241 0
246 106 241 0
-247 111 0
-247 -246 0
247 -111 246 0
-111 -109 0
-111 -110 0
111 109 110 0
-241 101 0
-241 -236 0
241 -101 236 0
-242 106 0
-242 241 0
242 -106 -241 0
-106 -104 0
-106 -105 0
106 104 105 0
-236 -96 0
-236 -231 0
236 96 231 0
-237 101 0
-237 -236 0
237 -101 236 0
-101 -99 0
-101 -100 0
101 99 100 0
-231 91 0
-231 226 0
231 -91 -226 0
-232 96 0
-232 231 0
232 -96 -231 0
-96 -94 0
-96 -95 0
96 94 95 0
-226 86 0
-226 -221 0
226 -86 221 0
-227 91 0
-227 226 0
227 -91 -226 0
-91 -89 0
-91 -90 0
91 89 90 0
-221 -81 0
-221 -216 0
221 81 216 0
-222 86 0
-222 -221 0
222 -86 221 0
-86 -84 0
-86 -85 0
86 84 85 0
-216 76 0
-216 211 0
216 -76 -211 0
-217 81 0
-217 216 0
217 -81 -216 0
-81 -79 0
-81 -80 0
81 79 80 0
-211 71 0
-211 206 0
211 -71 -206 0
-212 76 0
-212 211 0
212 -76 -211 0
-76 -74 0
-76 -75 0
76 74 75 0
-287 151 0
-287 286 0
287 -151 -286 0
-282 146 0
-282 -281 0
282 -146 281 0
-277 141 0
-277 -276 0
277 -141 276 0
-271 131 0
-271 -266 0
271 -131 266 0
-272 136 0
-272 271 0
272 -136 -271 0
-136 -134 0
-136 -135 0
136 134 135 0
-266 -126 0
-266 -261 0
266 126 261 0
-267 131 0
-267 -266 0
267 -131 266 0
-131 -129 0
-131 -130 0
131 129 130 0
-261 121 0
-261 -256 0
261 -121 256 0
-262 126 0
-262 261 0
262 -126 -261 0
-126 -124 0
-126 -125 0
126 124 125 0
-256 -116 0
-256 -251 0
256 116 251 0
-257 121 0
-257 -256 0
257 -121 256 0
-121 -119 0
-121 -120 0
121 119 120 0
-251 111 0
-251 -246 0
251 -111 246 0
-252 116 0
-252 251 0
252 -116 -251 0
-116 -114 0
-116 -115 0
116 114 115 0
-324 -321 0
-324 -322 0
324 321 322 0
-323 186 0
-323 -322 0
323 -186 322 0
-319 316 0
-319 -317 0
319 -316 317 0
-318 181 0
-318 -317 0
318 -181 317 0
-314 -311 0
-314 -312 0
314 311 312 0
-313 176 0
-313 -312 0
313 -176 312 0
-309 306 0
-309 -307 0
309 -306 307 0
-308 171 0
-308 -307 0
308 -171 307 0
-304 -301 0
-304 -302 0
304 301 302 0
-303 166 0
-303 -302 0
303 -166 302 0
-299 -296 0
-299 -297 0
299 296 297 0
-298 161 0
-298 -297 0
298 -161 297 0
-276 -136 0
-276 -271 0
276 136 271 0
-141 -139 0
-141 -140 0
141 139 140 0
-145 -142 0
-145 -143 0
145 142 143 0
-144 24 0
-144 -143 0
144 -24 143 0
-148 25 0
-148 -147 0
148 -25 147 0
-147 -24 0
-147 142 0
147 24 -142 0
-209 206 0
-209 -207 0
209 -206 207 0
-208 71 0
-208 -207 0
208 -71 207 0
-204 -201 0
-204 -202 0
204 201 202 0
-203 66 0
-203 -202 0
203 -66 202 0
-199 -196 0
-199 -197 0
199 196 197 0
-249 -246 0
-249 -247 0
249 246 247 0
-248 111 0
-248 -247 0
248 -111 247 0
-244 241 0
-244 -242 0
244 -241 242 0
-243 106 0
-243 -242 0
243 -106 242 0
-239 -236 0
-239 -237 0
239 236 237 0
-289 286 0
-289 -287 0
289 -286 287 0
-288 151 0
-288 -287 0
288 -151 287 0
-284 -281 0
-284 -282 0
284 281 282 0
-283 146 0
-283 -282 0
283 -146 282 0
-279 -276 0
-279 -277 0
279 276 277 0
-278 141 0
-278 -277 0
278 -141 277 0
-274 271 0
-274 -272 0
274 -271 272 0
-273 136 0
-273 -272 0
273 -136 272 0
-269 -266 0
-269 -267 0
269 266 267 0
-268 131 0
-268 -267 0
268 -131 267 0
-264 261 0
-264 -262 0
264 -261 262 0
-263 126 0
-263 -262 0
263 -126 262 0
-259 -256 0
-259 -257 0
259 256 257 0
-258 121 0
-258 -257 0
258 -121 257 0
-254 251 0
-254 -252 0
254 -251 252 0
-253 116 0
-253 -252 0
253 -116 252 0
-355 325 0
-355 350 0
355 -325 -350 0
-356 -1 0
-356 355 0
356 1 -355 0
-350 320 0
-350 345 0
350 -320 -345 0
-351 325 0
-351 350 0
351 -325 -350 0
-325 -323 0
-325 -324 0
325 323 324 0
-345 -315 0
-345 -340 0
345 315 340 0
-346 320 0
-346 345 0
346 -320 -345 0
-320 -318 0
-320 -319 0
320 318 319 0
-340 -310 0
-340 -335 0
340 310 335 0
-341 -315 0
-341 -340 0
341 315 340 0
-315 -313 0
-315 -314 0
315 313 314 0
-335 -305 0
-335 330 0
335 305 -330 0
-336 310 0
-336 335 0
336 -310 -335 0
-310 -308 0
-310 -309 0
310 308 309 0
-330 300 0
-330 295 0
330 -300 -295 0
-331 -305 0
-331 330 0
331 305 -330 0
-305 -303 0
-305 -304 0
305 303 304 0
-326 300 0
-326 295 0
326 -300 -295 0
-300 -298 0
-300 -299 0
300 298 299 0
-281 -141 0
-281 276 0
281 141 -276 0
-395 -205 0
-395 -390 0
395 205 390 0
-396 -210 0
-396 395 0
396 210 -395 0
-390 -200 0
-390 -385 0
390 200 385 0
-391 -205 0
-391 -390 0
391 205 390 0
-385 195 0
-385 -380 0
385 -195 380 0
-386 200 0
-386 385 0
386 -200 -385 0
-380 -190 0
-380 -375 0
380 190 375 0
-381 195 0
-381 -380 0
381 -195 380 0
-375 -46 0
-375 -370 0
375 46 370 0
-376 190 0
-376 375 0
376 -190 -375 0
-370 -41 0
-370 365 0
370 41 -365 0
-371 -46 0
-371 -370 0
371 46 370 0
-365 -36 0
-365 360 0
365 36 -360 0
-366 41 0
-366 -365 0
366 -41 365 0
-360 1 0
-360 -355 0
360 -1 355 0
-361 36 0
-361 -360 0
361 -36 360 0
-40 -37 0
-40 -38 0
40 37 38 0
-435 -245 0
-435 -430 0
435 245 430 0
-41 -39 0
-41 -40 0
41 39 40 0
-436 -250 0
-436 -435 0
436 250 435 0
-250 -248 0
-250 -249 0
250 248 249 0
-35 1 0
-35 -33 0
35 -1 33 0
-430 -240 0
-430 425 0
430 240 -425 0
-36 -34 0
-36 -35 0
36 34 35 0
-431 245 0
-431 430 0
431 -245 -430 0
-245 -243 0
-245 -244 0
245 243 244 0
-425 235 0
-425 -420 0
425 -235 420 0
-426 -240 0
-426 425 0
426 240 -425 0
-240 -238 0
-240 -239 0
240 238 239 0
-420 230 0
-420 415 0
420 -230 -415 0
-421 235 0
-421 -420 0
421 -235 420 0
-415 225 0
-415 -410 0
415 -225 410 0
-416 -230 0
-416 -415 0
416 230 415 0
-410 220 0
-410 -405 0
410 -220 405 0
-411 -225 0
-411 410 0
411 225 -410 0
-405 215 0
-405 400 0
405 -215 -400 0
-406 220 0
-406 -405 0
406 -220 405 0
-400 210 0
-400 -395 0
400 -210 395 0
-401 -215 0
-401 -400 0
401 215 400 0
-475 285 0
-475 470 0
475 -285 -470 0
-476 290 0
-476 -475 0
476 -290 475 0
-290 -288 0
-290 -289 0
290 288 289 0
-470 -280 0
-470 -465 0
470 280 465 0
-471 -285 0
-471 -470 0
471 285 470 0
-285 -283 0
-285 -284 0
285 283 284 0
-465 275 0
-465 -460 0
465 -275 460 0
-466 280 0
-466 465 0
466 -280 -465 0
-280 -278 0
-280 -279 0
280 278 279 0
-460 270 0
-460 455 0
460 -270 -455 0
-461 275 0
-461 -460 0
461 -275 460 0
-275 -273 0
-275 -274 0
275 273 274 0
-455 -265 0
-455 450 0
455 265 -450 0
-456 -270 0
-456 -455 0
456 270 455 0
-270 -268 0
-270 -269 0
270 268 269 0
-450 260 0
-450 445 0
450 -260 -445 0
-451 265 0
-451 -450 0
451 -265 450 0
-265 -263 0
-265 -264 0
265 263 264 0
-445 -255 0
-445 440 0
445 255 -440 0
-446 -260 0
-446 -445 0
446 260 445 0
-260 -258 0
-260 -259 0
260 258 259 0
-45 -42 0
-45 -43 0
45 42 43 0
-440 250 0
-440 435 0
440 -250 -435 0
-46 -44 0
-46 -45 0
46 44 45 0
-441 255 0
-441 -440 0
441 -255 440 0
-255 -253 0
-255 -254 0
255 253 254 0
-358 355 0
-358 -356 0
358 -355 356 0
-357 -1 0
-357 -356 0
357 1 356 0
-353 350 0
-353 -351 0
353 -350 351 0
-352 325 0
-352 -351 0
352 -325 351 0
-348 345 0
-348 -346 0
348 -345 346 0
-347 320 0
-347 -346 0
347 -320 346 0
-343 -340 0
-343 -341 0
343 340 341 0
-342 -315 0
-342 -341 0
342 315 341 0
-338 335 0
-338 -336 0
338 -335 336 0
-337 310 0
-337 -336 0
337 -310 336 0
-333 330 0
-333 -331 0
333 -330 331 0
-332 -305 0
-332 -331 0
332 305 331 0
-328 295 0
-328 -326 0
328 -295 326 0
-327 300 0
-327 -326 0
327 -300 326 0
-286 146 0
-286 -281 0
286 -146 281 0
-398 395 0
-398 -396 0
398 -395 396 0
-397 -210 0
-397 -396 0
397 210 396 0
-393 -390 0
-393 -391 0
393 390 391 0
-392 -205 0
-392 -391 0
392 205 391 0
-388 385 0
-388 -386 0
388 -385 386 0
-387 200 0
-387 -386 0
387 -200 386 0
-383 -380 0
-383 -381 0
383 380 381 0
-382 195 0
-382 -381 0
382 -195 381 0
-378 375 0
-378 -376 0
378 -375 376 0
-377 190 0
-377 -376 0
377 -190 376 0
-373 -370 0
-373 -371 0
373 370 371 0
-372 -46 0
-372 -371 0
372 46 371 0
-368 -365 0
-368 -366 0
368 365 366 0
-367 41 0
-367 -366 0
367 -41 366 0
-363 -360 0
-363 -361 0
363 360 361 0
-362 36 0
-362 -361 0
362 -36 361 0
-438 -435 0
-438 -436 0
438 435 436 0
-437 -250 0
-437 -436 0
437 250 436 0
-433 430 0
-433 -431 0
433 -430 431 0
-432 245 0
-432 -431 0
432 -245 431 0
-428 425 0
-428 -426 0
428 -425 426 0
-427 -240 0
-427 -426 0
427 240 426 0
-423 -420 0
-423 -421 0
423 420 421 0
-422 235 0
-422 -421 0
422 -235 421 0
-418 -415 0
-418 -416 0
418 415 416 0
-417 -230 0
-417 -416 0
417 230 416 0
-413 410 0
-413 -411 0
413 -410 411 0
-412 -225 0
-412 -411 0
412 225 411 0
-408 -405 0
-408 -406 0
408 405 406 0
-407 220 0
-407 -406 0
407 -220 406 0
-403 -400 0
-403 -401 0
403 400 401 0
-402 -215 0
-402 -401 0
402 215 401 0
-478 -475 0
-478 -476 0
478 475 476 0
-477 290 0
-477 -476 0
477 -290 476 0
-473 -470 0
-473 -471 0
473 470 471 0
-472 -285 0
-472 -471 0
472 285 471 0
-468 465 0
-468 -466 0
468 -465 466 0
-467 280 0
-467 -466 0
467 -280 466 0
-463 -460 0
-463 -461 0
463 460 461 0
-462 275 0
-462 -461 0
462 -275 461 0
-458 -455 0
-458 -456 0
458 455 456 0
-457 -270 0
-457 -456 0
457 270 456 0
-453 -450 0
-453 -451 0
453 450 451 0
-452 265 0
-452 -451 0
452 -265 451 0
-448 -445 0
-448 -446 0
448 445 446 0
-447 -260 0
-447 -446 0
447 260 446 0
-443 -440 0
-443 -441 0
443 440 441 0
-442 255 0
-442 -441 0
442 -255 441 0
-509 -354 0
-509 504 0
509 354 -504 0
-510 359 0
-510 509 0
510 -359 -509 0
-504 -349 0
-504 499 0
504 349 -499 0
-505 -354 0
-505 504 0
505 354 -504 0
-499 -344 0
-499 494 0
499 344 -494 0
-500 -349 0
-500 499 0
500 349 -499 0
-494 339 0
-494 489 0
494 -339 -489 0
-495 -344 0
-495 494 0
495 344 -494 0
-484 -329 0
-484 -295 0
484 329 295 0
-485 -334 0
-485 484 0
485 334 -484 0
-480 -329 0
-480 -295 0
480 329 295 0
-155 -152 0
-155 -153 0
155 152 153 0
-549 -394 0
-549 -544 0
549 394 544 0
-354 -352 0
-354 -353 0
354 352 353 0
-156 -154 0
-156 -155 0
156 154 155 0
-550 399 0
-550 549 0
550 -399 -549 0
-150 -147 0
-150 -148 0
150 147 148 0
-544 -389 0
-544 -539 0
544 389 539 0
-349 -347 0
-349 -348 0
349 347 348 0
-151 -149 0
-151 -150 0
151 149 150 0
-545 -394 0
-545 -544 0
545 394 544 0
-539 -384 0
-539 534 0
539 384 -534 0
-344 -342 0
-344 -343 0
344 342 343 0
-146 -144 0
-146 -145 0
146 144 145 0
-540 389 0
-540 539 0
540 -389 -539 0
-534 379 0
-534 529 0
534 -379 -529 0
-339 -337 0
-339 -338 0
339 337 338 0
-535 -384 0
-535 534 0
535 384 -534 0
-529 -374 0
-529 -524 0
529 374 524 0
-334 -332 0
-334 -333 0
334 332 333 0
-530 379 0
-530 529 0
530 -379 -529 0
-524 -369 0
-524 519 0
524 369 -519 0
-329 -327 0
-329 -328 0
329 327 328 0
-525 -374 0
-525 -524 0
525 374 524 0
-519 -364 0
-519 -514 0
519 364 514 0
-520 369 0
-520 -519 0
520 -369 519 0
-514 359 0
-514 509 0
514 -359 -509 0
-515 364 0
-515 514 0
515 -364 -514 0
-194 -191 0
-194 -192 0
194 191 192 0
-589 -434 0
-589 -584 0
589 434 584 0
-394 -392 0
-394 -393 0
394 392 393 0
-195 -193 0
-195 -194 0
195 193 194 0
-590 439 0
-590 -589 0
590 -439 589 0
-44 4 0
-44 -43 0
44 -4 43 0
-439 -437 0
-439 -438 0
439 437 438 0
-189 46 0
-189 -187 0
189 -46 187 0
-584 -429 0
-584 579 0
584 429 -579 0
-389 -387 0
-389 -388 0
389 387 388 0
-190 -188 0
-190 -189 0
190 188 189 0
-585 434 0
-585 584 0
585 -434 -584 0
-579 -424 0
-579 574 0
579 424 -574 0
-384 -382 0
-384 -383 0
384 382 383 0
-580 -429 0
-580 579 0
580 429 -579 0
-574 419 0
-574 -569 0
574 -419 569 0
-379 -377 0
-379 -378 0
379 377 378 0
-575 -424 0
-575 574 0
575 424 -574 0
-569 -414 0
-569 -564 0
569 414 564 0
-374 -372 0
-374 -373 0
374 372 373 0
-570 419 0
-570 -569 0
570 -419 569 0
-564 -409 0
-564 -559 0
564 409 559 0
-369 -367 0
-369 -368 0
369 367 368 0
-565 414 0
-565 564 0
565 -414 -564 0
-559 -404 0
-559 -554 0
559 404 554 0
-364 -362 0
-364 -363 0
364 362 363 0
-560 -409 0
-560 -559 0
560 409 559 0
-554 399 0
-554 549 0
554 -399 -549 0
-359 -357 0
-359 -358 0
359 357 358 0
-555 404 0
-555 554 0
555 -404 -554 0
-234 231 0
-234 -232 0
234 -231 232 0
-629 -474 0
-629 624 0
629 474 -624 0
-39 3 0
-39 -38 0
39 -3 38 0
-434 -432 0
-434 -433 0
434 432 433 0
-235 -233 0
-235 -234 0
235 233 234 0
-630 479 0
-630 -629 0
630 -479 629 0
-479 -477 0
-479 -478 0
479 477 478 0
-229 226 0
-229 -227 0
229 -226 227 0
-624 -469 0
-624 -619 0
624 469 619 0
-34 2 0
-34 -33 0
34 -2 33 0
-429 -427 0
-429 -428 0
429 427 428 0
-230 -228 0
-230 -229 0
230 228 229 0
-625 474 0
-625 -624 0
625 -474 624 0
-474 -472 0
-474 -473 0
474 472 473 0
-224 -221 0
-224 -222 0
224 221 222 0
-619 -464 0
-619 614 0
619 464 -614 0
-424 -422 0
-424 -423 0
424 422 423 0
-225 -223 0
-225 -224 0
225 223 224 0
-620 469 0
-620 619 0
620 -469 -619 0
-469 -467 0
-469 -468 0
469 467 468 0
-219 216 0
-219 -217 0
219 -216 217 0
-614 459 0
-614 -609 0
614 -459 609 0
-419 -417 0
-419 -418 0
419 417 418 0
-220 -218 0
-220 -219 0
220 218 219 0
-615 -464 0
-615 614 0
615 464 -614 0
-464 -462 0
-464 -463 0
464 462 463 0
-214 211 0
-214 -212 0
214 -211 212 0
-609 -454 0
-609 604 0
609 454 -604 0
-414 -412 0
-414 -413 0
414 412 413 0
-215 -213 0
-215 -214 0
215 213 214 0
-610 459 0
-610 -609 0
610 -459 609 0
-459 -457 0
-459 -458 0
459 457 458 0
-604 -449 0
-604 599 0
604 449 -599 0
-409 -407 0
-409 -408 0
409 407 408 0
-210 -208 0
-210 -209 0
210 208 209 0
-605 454 0
-605 -604 0
605 -454 604 0
-454 -452 0
-454 -453 0
454 452 453 0
-599 -444 0
-599 -594 0
599 444 594 0
-404 -402 0
-404 -403 0
404 402 403 0
-205 -203 0
-205 -204 0
205 203 204 0
-600 449 0
-600 -599 0
600 -449 599 0
-449 -447 0
-449 -448 0
449 447 448 0
-594 439 0
-594 -589 0
594 -439 589 0
-399 -397 0
-399 -398 0
399 397 398 0
-200 -198 0
-200 -199 0
200 198 199 0
-595 444 0
-595 594 0
595 -444 -594 0
-444 -442 0
-444 -443 0
444 442 443 0
-512 509 0
-512 -510 0
512 -509 510 0
-507 504 0
-507 -505 0
507 -504 505 0
-502 499 0
-502 -500 0
502 -499 500 0
-497 494 0
-497 -495 0
497 -494 495 0
-492 489 0
-492 -490 0
492 -489 490 0
-482 -295 0
-482 -480 0
482 295 480 0
-552 549 0
-552 -550 0
552 -549 550 0
-551 399 0
-551 -550 0
551 -399 550 0
-153 26 0
-153 -152 0
153 -26 152 0
-547 -544 0
-547 -545 0
547 544 545 0
-152 -25 0
-152 147 0
152 25 -147 0
-546 -394 0
-546 -545 0
546 394 545 0
-542 539 0
-542 -540 0
542 -539 540 0
-541 389 0
-541 -540 0
541 -389 540 0
-537 534 0
-537 -535 0
537 -534 535 0
-532 529 0
-532 -530 0
532 -529 530 0
-527 -524 0
-527 -525 0
527 524 525 0
-522 -519 0
-522 -520 0
522 519 520 0
-517 514 0
-517 -515 0
517 -514 515 0
-592 -589 0
-592 -590 0
592 589 590 0
-591 439 0
-591 -590 0
591 -439 590 0
-587 584 0
-587 -585 0
587 -584 585 0
-586 434 0
-586 -585 0
586 -434 585 0
-488 -486 0
-488 -487 0
488 486 487 0
-293 156 0
-293 -292 0
293 -156 292 0
-582 579 0
-582 -580 0
582 -579 580 0
-581 -429 0
-581 -580 0
581 429 580 0
-577 574 0
-577 -575 0
577 -574 575 0
-576 -424 0
-576 -575 0
576 424 575 0
-572 -569 0
-572 -570 0
572 569 570 0
-571 419 0
-571 -570 0
571 -419 570 0
-567 564 0
-567 -565 0
567 -564 565 0
-566 414 0
-566 -565 0
566 -414 565 0
-562 -559 0
-562 -560 0
562 559 560 0
-561 -409 0
-561 -560 0
561 409 560 0
-557 554 0
-557 -555 0
557 -554 555 0
-556 404 0
-556 -555 0
556 -404 555 0
-632 -629 0
-632 -630 0
632 629 630 0
-631 479 0
-631 -630 0
631 -479 630 0
-626 474 0
-626 -625 0
626 -474 625 0
-621 469 0
-621 -620 0
621 -469 620 0
-616 -464 0
-616 -615 0
616 464 615 0
-611 459 0
-611 -610 0
611 -459 610 0
-606 454 0
-606 -605 0
606 -454 605 0
-601 449 0
-601 -600 0
601 -449 600 0
-596 444 0
-596 -595 0
596 -444 595 0
-607 -604 0
-607 -605 0
607 604 605 0
-513 -511 0
-513 -512 0
513 511 512 0
-602 -599 0
-602 -600 0
602 599 600 0
-508 -506 0
-508 -507 0
508 506 507 0
-597 594 0
-597 -595 0
597 -594 595 0
-503 -501 0
-503 -502 0
503 501 502 0
-498 -496 0
-498 -497 0
498 496 497 0
-493 -491 0
-493 -492 0
493 491 492 0
-483 -481 0
-483 -482 0
483 481 482 0
-553 -551 0
-553 -552 0
553 551 552 0
-154 26 0
-154 -153 0
154 -26 153 0
-548 -546 0
-548 -547 0
548 546 547 0
-149 25 0
-149 -148 0
149 -25 148 0
-543 -541 0
-543 -542 0
543 541 542 0
-538 -536 0
-538 -537 0
538 536 537 0
-627 -624 0
-627 -625 0
627 624 625 0
-533 -531 0
-533 -532 0
533 531 532 0
-622 619 0
-622 -620 0
622 -619 620 0
-292 156 0
-292 -291 0
292 -156 291 0
-487 484 0
-487 -485 0
487 -484 485 0
-490 339 0
-490 489 0
490 -339 -489 0
-295 -293 0
-295 -294 0
295 293 294 0
-528 -526 0
-528 -527 0
528 526 527 0
-617 614 0
-617 -615 0
617 -614 615 0
-523 -521 0
-523 -522 0
523 521 522 0
-496 -344 0
-496 -495 0
496 344 495 0
-198 61 0
-198 -197 0
198 -61 197 0
-593 -591 0
-593 -592 0
593 591 592 0
-491 339 0
-491 -490 0
491 -339 490 0
-193 56 0
-193 -192 0
193 -56 192 0
-588 -586 0
-588 -587 0
588 586 587 0
-291 -151 0
-291 -286 0
291 151 286 0
-486 -334 0
-486 -485 0
486 334 485 0
-489 -334 0
-489 484 0
489 334 -484 0
-294 -291 0
-294 -292 0
294 291 292 0
-188 51 0
-188 -187 0
188 -51 187 0
-583 -581 0
-583 -582 0
583 581 582 0
-481 -329 0
-481 -480 0
481 329 480 0
-578 -576 0
-578 -577 0
578 576 577 0
-573 -571 0
-573 -572 0
573 571 572 0
-612 -609 0
-612 -610 0
612 609 610 0
-518 -516 0
-518 -517 0
518 516 517 0
-536 -384 0
-536 -535 0
536 384 535 0
-238 101 0
-238 -237 0
238 -101 237 0
-633 -631 0
-633 -632 0
633 631 632 0
-531 379 0
-531 -530 0
531 -379 530 0
-233 96 0
-233 -232 0
233 -96 232 0
-628 -626 0
-628 -627 0
628 626 627 0
-568 -566 0
-568 -567 0
568 566 567 0
-526 -374 0
-526 -525 0
526 374 525 0
-228 91 0
-228 -227 0
228 -91 227 0
-623 -621 0
-623 -622 0
623 621 622 0
-563 -561 0
-563 -562 0
563 561 562 0
-521 369 0
-521 -520 0
521 -369 520 0
-223 86 0
-223 -222 0
223 -86 222 0
-618 -616 0
-618 -617 0
618 616 617 0
-558 -556 0
-558 -557 0
558 556 557 0
-516 364 0
-516 -515 0
516 -364 515 0
-218 81 0
-218 -217 0
218 -81 217 0
-613 -611 0
-613 -612 0
613 611 612 0
-511 359 0
-511 -510 0
511 -359 510 0
-213 76 0
-213 -212 0
213 -76 212 0
-608 -606 0
-608 -607 0
608 606 607 0
-506 -354 0
-506 -505 0
506 354 505 0
-603 -601 0
-603 -602 0
603 601 602 0
-501 -349 0
-501 -500 0
501 349 500 0
-598 -596 0
-598 -597 0
598 596 597 0
